DIMACS2
40 124 62 102 129 104 19 107 86 122 43 134 149 49 54 75 36 95 145 130 155 105 68 153 30 1 64 45 61 90 146 151 97 138 47 79 121 52 77 126 53
p edge 160 629
e 0 72 1.0
e 0 14 1.0
e 0 132 1.0
e 1 30 16.0
e 1 64 8.0
e 1 16 12.0
e 1 157 19.0
e 2 115 1.0
e 2 106 2.0
e 2 108 1.0
e 2 153 45.0
e 3 35 2.0
e 3 11 1.0
e 3 77 31.0
e 3 51 1.0
e 4 81 1.0
e 4 33 1.0
e 4 2 1.0
e 5 31 1.0
e 5 118 1.0
e 5 1 23.0
e 5 90 12.0
e 6 93 1.0
e 6 157 1.0
e 6 112 1.0
e 6 40 2.0
e 7 124 45.0
e 7 3 2.0
e 7 110 1.0
e 7 1 35.0
e 8 27 1.0
e 8 62 49.0
e 8 110 1.0
e 8 28 2.0
e 9 0 1.0
e 9 14 1.0
e 9 113 2.0
e 9 149 37.0
e 10 157 1.0
e 10 43 32.0
e 10 19 28.0
e 10 45 3.0
e 11 126 27.0
e 11 61 25.0
e 11 98 1.0
e 11 10 1.0
e 12 76 1.0
e 12 97 20.0
e 12 60 1.0
e 12 75 35.0
e 13 143 2.0
e 13 26 2.0
e 13 42 1.0
e 13 58 2.0
e 14 72 2.0
e 14 26 1.0
e 14 31 1.0
e 14 77 5.0
e 15 147 1.0
e 15 60 1.0
e 15 8 1.0
e 15 84 1.0
e 16 89 1.0
e 16 77 8.0
e 16 115 1.0
e 16 61 1.0
e 17 99 1.0
e 17 19 1.0
e 17 109 1.0
e 17 114 1.0
e 18 110 1.0
e 18 30 39.0
e 18 114 1.0
e 18 119 1.0
e 19 141 13.0
e 19 144 24.0
e 19 76 37.0
e 19 117 10.0
e 20 10 1.0
e 20 69 1.0
e 20 128 1.0
e 20 3 2.0
e 21 115 1.0
e 21 134 48.0
e 21 79 33.0
e 21 83 1.0
e 22 54 42.0
e 22 4 1.0
e 22 23 1.0
e 22 71 1.0
e 23 136 1.0
e 23 54 11.0
e 23 41 2.0
e 23 148 1.0
e 24 90 6.0
e 24 154 1.0
e 24 41 2.0
e 24 51 1.0
e 25 149 7.0
e 25 129 2.0
e 25 158 1.0
e 25 18 1.0
e 26 74 1.0
e 26 145 8.0
e 26 17 1.0
e 26 33 1.0
e 27 109 1.0
e 27 65 1.0
e 27 112 1.0
e 27 128 1.0
e 28 11 1.0
e 28 107 42.0
e 28 93 1.0
e 28 158 1.0
e 29 19 38.0
e 29 116 2.0
e 29 3 1.0
e 29 154 1.0
e 30 76 17.0
e 30 27 48.0
e 30 145 46.0
e 30 113 18.0
e 31 81 1.0
e 31 44 1.0
e 31 120 2.0
e 31 121 12.0
e 32 72 1.0
e 32 0 1.0
e 32 5 1.0
e 32 45 25.0
e 33 93 1.0
e 33 135 2.0
e 33 127 1.0
e 34 110 1.0
e 34 30 48.0
e 34 99 1.0
e 34 134 20.0
e 35 93 2.0
e 35 101 1.0
e 35 45 2.0
e 35 120 1.0
e 36 96 30.0
e 36 72 26.0
e 36 100 46.0
e 36 39 4.0
e 37 2 1.0
e 37 133 1.0
e 37 101 2.0
e 37 136 1.0
e 38 22 1.0
e 38 26 3.0
e 38 11 2.0
e 38 92 1.0
e 39 21 1.0
e 39 26 1.0
e 39 99 1.0
e 39 86 25.0
e 40 71 2.0
e 40 98 1.0
e 40 121 44.0
e 40 74 1.0
e 41 54 32.0
e 41 38 1.0
e 41 25 1.0
e 41 83 1.0
e 42 82 1.0
e 42 131 1.0
e 42 155 45.0
e 43 98 41.0
e 43 133 37.0
e 43 53 15.0
e 43 150 49.0
e 44 64 42.0
e 44 142 2.0
e 44 53 30.0
e 44 9 2.0
e 45 152 6.0
e 45 37 44.0
e 45 90 22.0
e 45 77 2.0
e 46 149 46.0
e 46 109 1.0
e 46 138 43.0
e 46 110 1.0
e 47 76 5.0
e 47 22 4.0
e 47 116 39.0
e 47 24 49.0
e 48 45 19.0
e 48 81 2.0
e 48 43 28.0
e 48 6 1.0
e 49 111 6.0
e 49 63 30.0
e 49 4 6.0
e 49 117 21.0
e 50 110 1.0
e 50 21 1.0
e 50 42 1.0
e 50 33 1.0
e 51 119 2.0
e 51 93 1.0
e 51 106 1.0
e 51 153 43.0
e 52 42 44.0
e 52 137 45.0
e 52 149 39.0
e 52 23 23.0
e 53 129 39.0
e 53 22 2.0
e 53 0 18.0
e 53 73 48.0
e 54 97 27.0
e 54 88 36.0
e 54 58 21.0
e 54 83 3.0
e 55 107 41.0
e 55 63 1.0
e 55 108 1.0
e 55 34 1.0
e 56 127 1.0
e 56 9 1.0
e 56 19 46.0
e 56 29 1.0
e 57 102 46.0
e 57 1 5.0
e 57 35 1.0
e 57 24 1.0
e 58 82 1.0
e 58 60 2.0
e 58 123 1.0
e 58 91 1.0
e 59 58 1.0
e 59 23 1.0
e 59 72 1.0
e 59 2 2.0
e 60 67 2.0
e 60 139 2.0
e 60 8 2.0
e 60 132 2.0
e 61 109 11.0
e 61 26 18.0
e 61 66 24.0
e 61 78 14.0
e 62 137 20.0
e 62 15 44.0
e 62 24 7.0
e 62 105 12.0
e 63 95 7.0
e 63 39 1.0
e 63 86 46.0
e 63 111 1.0
e 64 84 26.0
e 64 110 21.0
e 64 72 14.0
e 64 158 49.0
e 65 123 1.0
e 65 12 1.0
e 65 78 1.0
e 65 116 1.0
e 66 94 1.0
e 66 57 1.0
e 66 113 1.0
e 67 37 1.0
e 67 127 1.0
e 67 36 9.0
e 67 24 1.0
e 68 11 21.0
e 68 111 45.0
e 68 109 41.0
e 68 39 48.0
e 69 84 1.0
e 69 50 1.0
e 69 53 40.0
e 69 77 31.0
e 70 119 1.0
e 70 73 1.0
e 70 35 2.0
e 70 51 1.0
e 71 143 1.0
e 71 127 2.0
e 71 85 1.0
e 71 78 1.0
e 72 78 1.0
e 72 51 1.0
e 72 149 13.0
e 72 53 13.0
e 73 13 1.0
e 73 100 3.0
e 73 40 2.0
e 73 14 1.0
e 74 47 28.0
e 74 75 14.0
e 74 27 2.0
e 74 53 4.0
e 75 84 17.0
e 75 4 4.0
e 75 46 19.0
e 75 80 45.0
e 76 14 1.0
e 76 5 1.0
e 76 84 1.0
e 76 156 1.0
e 77 104 35.0
e 77 105 2.0
e 77 137 1.0
e 78 76 1.0
e 78 141 1.0
e 78 154 1.0
e 78 120 1.0
e 79 77 19.0
e 79 149 18.0
e 79 143 5.0
e 79 107 29.0
e 80 67 1.0
e 80 34 1.0
e 80 90 33.0
e 80 20 1.0
e 81 152 1.0
e 81 128 1.0
e 81 24 1.0
e 81 147 2.0
e 82 97 6.0
e 82 54 10.0
e 82 74 1.0
e 82 133 1.0
e 83 75 39.0
e 83 138 13.0
e 83 48 1.0
e 83 63 1.0
e 84 79 31.0
e 84 88 1.0
e 84 100 1.0
e 84 138 45.0
e 85 9 1.0
e 85 35 2.0
e 85 65 1.0
e 86 118 23.0
e 86 66 5.0
e 86 68 33.0
e 86 80 6.0
e 87 91 1.0
e 87 81 1.0
e 87 155 33.0
e 87 5 1.0
e 88 0 1.0
e 88 143 1.0
e 88 56 1.0
e 88 53 46.0
e 89 83 1.0
e 89 91 1.0
e 89 107 35.0
e 89 138 5.0
e 90 126 38.0
e 90 148 43.0
e 90 60 18.0
e 90 101 46.0
e 91 120 1.0
e 91 7 1.0
e 91 154 1.0
e 91 85 1.0
e 92 139 1.0
e 92 88 1.0
e 92 111 1.0
e 92 132 1.0
e 93 136 1.0
e 93 121 31.0
e 93 115 1.0
e 93 133 1.0
e 94 59 1.0
e 94 79 45.0
e 94 130 43.0
e 94 39 1.0
e 95 17 49.0
e 95 128 40.0
e 95 51 28.0
e 95 28 8.0
e 96 71 1.0
e 96 57 1.0
e 96 100 1.0
e 96 101 1.0
e 97 134 20.0
e 97 90 7.0
e 97 143 24.0
e 97 11 5.0
e 98 105 27.0
e 98 106 1.0
e 98 128 1.0
e 98 95 16.0
e 99 148 2.0
e 99 81 1.0
e 99 21 1.0
e 99 145 42.0
e 100 154 1.0
e 100 29 1.0
e 100 120 2.0
e 100 54 11.0
e 101 110 1.0
e 101 62 4.0
e 101 108 1.0
e 101 46 1.0
e 102 80 42.0
e 102 81 9.0
e 102 121 33.0
e 102 76 20.0
e 103 24 1.0
e 103 140 2.0
e 103 137 1.0
e 103 20 2.0
e 104 78 21.0
e 104 124 10.0
e 104 64 37.0
e 104 4 18.0
e 105 148 22.0
e 105 96 49.0
e 105 17 18.0
e 106 123 1.0
e 106 117 1.0
e 106 83 1.0
e 106 14 1.0
e 107 13 45.0
e 107 17 38.0
e 107 87 5.0
e 107 83 30.0
e 108 154 1.0
e 108 34 1.0
e 108 133 1.0
e 108 128 1.0
e 109 97 37.0
e 109 6 1.0
e 109 36 35.0
e 109 147 1.0
e 110 85 1.0
e 110 148 1.0
e 110 14 1.0
e 110 96 1.0
e 111 11 1.0
e 111 100 1.0
e 111 15 1.0
e 111 140 1.0
e 112 77 7.0
e 112 124 41.0
e 112 28 1.0
e 112 142 3.0
e 113 5 1.0
e 113 144 1.0
e 113 8 1.0
e 113 51 1.0
e 114 19 41.0
e 114 88 1.0
e 114 109 1.0
e 114 25 1.0
e 115 98 1.0
e 115 112 1.0
e 115 11 1.0
e 115 132 1.0
e 116 45 26.0
e 116 157 1.0
e 116 71 1.0
e 116 121 27.0
e 117 126 9.0
e 117 26 1.0
e 117 56 1.0
e 117 15 1.0
e 118 152 1.0
e 118 16 1.0
e 118 72 1.0
e 118 157 1.0
e 119 52 18.0
e 119 100 2.0
e 119 0 1.0
e 119 41 1.0
e 120 156 1.0
e 120 133 1.0
e 120 153 44.0
e 120 87 2.0
e 121 114 26.0
e 121 28 47.0
e 121 48 20.0
e 121 42 5.0
e 122 140 4.0
e 122 151 25.0
e 122 18 26.0
e 122 106 7.0
e 123 73 1.0
e 123 50 1.0
e 123 49 19.0
e 124 156 37.0
e 124 107 5.0
e 124 31 17.0
e 124 38 12.0
e 125 105 41.0
e 125 89 1.0
e 125 100 1.0
e 125 88 1.0
e 126 5 8.0
e 126 134 23.0
e 126 157 30.0
e 126 69 28.0
e 127 118 2.0
e 127 14 3.0
e 127 53 41.0
e 127 111 1.0
e 128 45 36.0
e 128 96 1.0
e 128 107 14.0
e 128 7 1.0
e 129 21 30.0
e 129 101 30.0
e 129 137 25.0
e 129 93 1.0
e 130 118 18.0
e 130 18 19.0
e 130 103 40.0
e 130 74 24.0
e 131 113 1.0
e 131 151 48.0
e 131 132 1.0
e 131 32 1.0
e 132 14 3.0
e 132 12 1.0
e 132 142 1.0
e 132 3 1.0
e 133 121 9.0
e 133 122 29.0
e 133 88 1.0
e 133 135 1.0
e 134 140 27.0
e 134 11 11.0
e 134 80 22.0
e 134 123 32.0
e 135 9 1.0
e 135 54 38.0
e 135 4 1.0
e 135 72 1.0
e 136 153 29.0
e 136 80 2.0
e 136 15 3.0
e 136 103 1.0
e 137 101 1.0
e 137 83 1.0
e 137 98 1.0
e 138 0 44.0
e 138 130 10.0
e 138 49 24.0
e 138 87 9.0
e 139 39 1.0
e 139 100 1.0
e 139 65 1.0
e 139 18 1.0
e 140 95 6.0
e 140 89 1.0
e 140 5 1.0
e 140 133 1.0
e 141 44 1.0
e 141 48 2.0
e 141 6 2.0
e 141 148 1.0
e 142 82 1.0
e 142 61 41.0
e 142 18 1.0
e 142 67 1.0
e 143 93 1.0
e 143 83 1.0
e 143 62 49.0
e 143 24 1.0
e 144 38 1.0
e 144 117 1.0
e 144 115 1.0
e 144 63 1.0
e 145 11 29.0
e 145 131 20.0
e 145 32 18.0
e 145 61 40.0
e 146 110 12.0
e 146 158 29.0
e 146 91 38.0
e 146 102 30.0
e 147 32 1.0
e 147 86 27.0
e 147 90 35.0
e 147 82 1.0
e 148 106 1.0
e 148 49 36.0
e 148 85 1.0
e 148 10 1.0
e 149 17 46.0
e 149 91 15.0
e 149 45 10.0
e 149 93 42.0
e 150 51 1.0
e 150 145 23.0
e 150 151 1.0
e 150 95 23.0
e 151 98 46.0
e 151 82 11.0
e 151 97 18.0
e 151 80 25.0
e 152 158 1.0
e 152 18 1.0
e 152 94 1.0
e 152 101 1.0
e 153 15 10.0
e 153 84 5.0
e 153 113 30.0
e 154 64 23.0
e 154 147 1.0
e 154 51 1.0
e 154 138 18.0
e 155 106 34.0
e 155 57 21.0
e 155 130 32.0
e 155 131 34.0
e 156 83 1.0
e 156 127 1.0
e 156 155 31.0
e 156 49 25.0
e 157 119 1.0
e 157 71 1.0
e 157 114 1.0
e 157 106 1.0
e 158 57 1.0
e 158 79 8.0
e 158 118 1.0
e 158 33 1.0
e 159 38 1.0
e 159 153 12.0
e 159 130 16.0
e 159 46 1.0
